Minimize
  - 19 y_0 - 23 y_1 - 20 y_2 - 20 y_3 - 13 y_4 - 13 y_5 - 15 y_6 - 21 y_7
   - 14 y_9 - 18 y_10 - 19 y_11 - 31 y_12 - 31 y_13 - 14 y_14 - 24 y_15
   - 22 y_16 - 16 y_17 - 20 y_18 - 15 y_19 + 77 x_0_1 + 105 x_0_3
   + 74 x_0_4 + 75 x_0_6 + 111 x_0_7 + 55 x_0_9 + 59 x_0_10 + 82 x_0_12
   + 88 x_0_13 + 60 x_0_14 + 14 x_0_16 + 68 x_0_17 + 20 x_0_18 + 49 x_1_3
   + 44 x_1_5 + 35 x_1_6 + 92 x_1_8 + 39 x_1_9 + 24 x_1_10 + 61 x_1_11
   + 39 x_1_12 + 39 x_1_13 + 36 x_1_14 + 2 x_1_15 + 72 x_1_16 + 30 x_1_17
   + 59 x_1_18 + 98 x_2_3 + 69 x_2_4 + 46 x_2_5 + 69 x_2_6 + 79 x_2_8
   + 49 x_2_9 + 50 x_2_10 + 6 x_2_11 + 69 x_2_12 + 69 x_2_15 + 26 x_2_19
   + 34 x_3_4 + 55 x_3_5 + 78 x_3_8 + 51 x_3_9 + 49 x_3_10 + 93 x_3_11
   + 45 x_3_14 + 50 x_3_15 + 38 x_3_17 + 92 x_3_18 + 23 x_4_5 + 11 x_4_6
   + 40 x_4_7 + 51 x_4_8 + 28 x_4_10 + 64 x_4_11 + 81 x_4_12 + 82 x_4_13
   + 16 x_4_14 + 47 x_4_15 + 77 x_4_16 + 15 x_4_17 + 26 x_5_6 + 61 x_5_7
   + 50 x_5_8 + 21 x_5_10 + 41 x_5_11 + 72 x_5_12 + 76 x_5_13 + 11 x_5_14
   + 47 x_5_15 + 54 x_5_16 + 20 x_5_17 + 42 x_5_18 + 20 x_5_19 + 62 x_6_8
   + 22 x_6_10 + 73 x_6_13 + 15 x_6_14 + 36 x_6_15 + 77 x_6_16 + 9 x_6_17
   + 45 x_6_19 + 56 x_7_9 + 54 x_7_10 + 88 x_7_13 + 52 x_7_15 + 111 x_7_16
   + 43 x_7_17 + 98 x_7_18 + 70 x_8_10 + 77 x_8_11 + 56 x_8_14 + 94 x_8_15
   + 62 x_8_17 + 58 x_8_19 + 43 x_9_11 + 68 x_9_12 + 71 x_9_13 + 6 x_9_14
   + 57 x_9_16 + 14 x_9_17 + 24 x_9_19 + 54 x_10_12 + 15 x_10_14
   + 26 x_10_15 + 57 x_10_16 + 44 x_10_18 + 31 x_10_19 + 65 x_11_12
   + 72 x_11_13 + 13 x_11_16 + 55 x_11_17 + 7 x_12_13 + 68 x_12_14
   + 71 x_12_16 + 65 x_12_17 + 63 x_12_18 + 70 x_12_19 + 71 x_13_14
   + 38 x_13_15 + 67 x_13_17 + 75 x_13_19 + 38 x_14_15 + 9 x_14_17
   + 49 x_14_18 + 30 x_14_19 + 38 x_15_14 + 74 x_15_16 + 32 x_15_17
   + 61 x_15_18 + 55 x_15_19 + 68 x_16_17 + 14 x_16_18 + 23 x_18_19
   + 23 x_18_19 + 23 x_18_19 + 23 x_18_19 + 23 x_18_19 + 23 x_18_19
   + 23 x_18_19 + 23 x_18_19 + 23 x_18_19 + 23 x_18_19 + 23 x_18_19
   + 23 x_18_19 + 23 x_18_19 + 23 x_18_19 + 23 x_18_19 + 23 x_18_19
   + 23 x_18_19 + 23 x_18_19 + 23 x_18_19 + 23 x_18_19 + 23 x_18_19
   + 23 x_18_19 + 23 x_18_19 + 23 x_18_19 + 23 x_18_19 + 23 x_18_19
   + 23 x_18_19 + 23 x_18_19 + 23 x_18_19 + 23 x_18_19 + 23 x_18_19
   + 23 x_18_19 + 23 x_18_19 + 23 x_18_19 + 23 x_18_19 + 23 x_18_19
   + 23 x_18_19 + 23 x_18_19 + 23 x_18_19 + 23 x_18_19 + 23 x_18_19
   + 23 x_18_19 + 23 x_18_19 + 23 x_18_19 + 23 x_18_19 + 23 x_18_19
   + 23 x_18_19 + 23 x_18_19 + 23 x_18_19 + 23 x_18_19 + 23 x_18_19
   + 23 x_18_19 + 23 x_18_19 + 23 x_18_19 + 23 x_18_19 + 23 x_18_19
   + 23 x_18_19 + 23 x_18_19 + 23 x_18_19 + 23 x_18_19 + 23 x_18_19
   + 23 x_18_19 + 23 x_18_19 + 23 x_18_19 + 23 x_18_19 + 23 x_18_19
   + 23 x_18_19 + 23 x_18_19 + 23 x_18_19 + 23 x_18_19 + 23 x_18_19
   + 23 x_18_19 + 23 x_18_19 + 23 x_18_19 + 23 x_18_19 + 23 x_18_19
   + 23 x_18_19 + 23 x_18_19 + 23 x_18_19 + 23 x_18_19 + 23 x_18_19
   + 23 x_18_19 + 23 x_18_19 + 23 x_18_19 + 23 x_18_19 + 23 x_18_19
   + 23 x_18_19 + 23 x_18_19 + 23 x_18_19 + 23 x_18_19 + 23 x_18_19
   + 23 x_18_19 + 23 x_18_19 + 23 x_18_19 + 23 x_18_19 + 23 x_18_19
   + 23 x_18_19 + 23 x_18_19 + 23 x_18_19 + 23 x_18_19 + 23 x_18_19
   + 23 x_18_19 + 23 x_18_19 + 23 x_18_19 + 23 x_18_19 + 23 x_18_19
   + 23 x_18_19 + 23 x_18_19 + 23 x_18_19 + 23 x_18_19 + 23 x_18_19
   + 23 x_18_19 + 23 x_18_19 + 23 x_18_19 + 23 x_18_19 + 23 x_18_19
   + 23 x_18_19 + 23 x_18_19 + 23 x_18_19 + 23 x_18_19 + 23 x_18_19
   + 23 x_18_19 + 23 x_18_19 + 23 x_18_19 + 23 x_18_19 + 23 x_18_19
   + 23 x_18_19 + 23 x_18_19 + 23 x_18_19 + 23 x_18_19 + 23 x_18_19
   + 23 x_18_19 + 23 x_18_19 + 23 x_18_19 + 23 x_18_19 + 23 x_18_19
   + 23 x_18_19 + 23 x_18_19 + 23 x_18_19 + 23 x_18_19 + 23 x_18_19
   + 23 x_18_19 + 23 x_18_19 + 23 x_18_19 + 23 x_18_19 + 23 x_18_19
   + 23 x_18_19 + 23 x_18_19 + 23 x_18_19 + 23 x_18_19 + 23 x_18_19
   + 23 x_18_19 + 23 x_18_19 + 23 x_18_19 + 23 x_18_19 + 23 x_18_19
   + 23 x_18_19 + 23 x_18_19 + 23 x_18_19 + 23 x_18_19 + 23 x_18_19
   + 23 x_18_19 + 23 x_18_19 + 23 x_18_19 + 23 x_18_19 + 23 x_18_19
   + 23 x_18_19 + 23 x_18_19 + 23 x_18_19 + 23 x_18_19 + 23 x_18_19
   + 23 x_18_19 + 23 x_18_19 + 23 x_18_19 + 23 x_18_19 + 23 x_18_19
   + 23 x_18_19 + 23 x_18_19 + 23 x_18_19 + 23 x_18_19 + 23 x_18_19
   + 23 x_18_19 + 23 x_18_19 + 23 x_18_19 + 23 x_18_19 + 23 x_18_19
   + 23 x_18_19 + 23 x_18_19 + 23 x_18_19 + 23 x_18_19 + 23 x_18_19
   + 23 x_18_19 + 23 x_18_19 + 23 x_18_19 + 23 x_18_19 + 23 x_18_19
   + 23 x_18_19 + 23 x_18_19 + 23 x_18_19 + 23 x_18_19 + 23 x_18_19
   + 23 x_18_19 + 23 x_18_19 + 23 x_18_19 + 23 x_18_19 + 23 x_18_19
   + 23 x_18_19 + 23 x_18_19 + 23 x_18_19 + 23 x_18_19 + 23 x_18_19
   + 23 x_18_19 + 23 x_18_19 + 23 x_18_19 + 23 x_18_19 + 23 x_18_19
   + 23 x_18_19 + 23 x_18_19 + 23 x_18_19 + 23 x_18_19 + 23 x_18_19
   + 23 x_18_19 + 23 x_18_19 + 23 x_18_19 + 23 x_18_19 + 23 x_18_19
   + 23 x_18_19 + 23 x_18_19 + 23 x_18_19 + 23 x_18_19 + 23 x_18_19
   + 23 x_18_19 + 23 x_18_19 + 23 x_18_19 + 23 x_18_19 + 23 x_18_19
   + 23 x_18_19 + 23 x_18_19 + 23 x_18_19 + 23 x_18_19 + 23 x_18_19
   + 23 x_18_19 + 23 x_18_19 + 23 x_18_19 + 23 x_18_19 + 23 x_18_19
   + 23 x_18_19 + 23 x_18_19 + 23 x_18_19 + 23 x_18_19 + 23 x_18_19
   + 23 x_18_19 + 23 x_18_19 + 23 x_18_19 + 23 x_18_19 + 23 x_18_19
   + 23 x_18_19 + 23 x_18_19 + 23 x_18_19 + 23 x_18_19 + 23 x_18_19
   + 23 x_18_19 + 23 x_18_19 + 23 x_18_19 + 23 x_18_19 + 23 x_18_19
   + 23 x_18_19 + 23 x_18_19 + 23 x_18_19 + 23 x_18_19 + 23 x_18_19
   + 23 x_18_19 + 23 x_18_19 + 23 x_18_19 + 23 x_18_19 + 23 x_18_19
   + 23 x_18_19 + 23 x_18_19 + 23 x_18_19 + 23 x_18_19 + 23 x_18_19
   + 23 x_18_19 + 23 x_18_19 + 23 x_18_19 + 23 x_18_19 + 23 x_18_19
   + 23 x_18_19 + 23 x_18_19 + 23 x_18_19 + 23 x_18_19 + 23 x_18_19
   + 23 x_18_19 + 23 x_18_19 + 23 x_18_19 + 23 x_18_19 + 23 x_18_19
   + 23 x_18_19 + 23 x_18_19 + 23 x_18_19 + 23 x_18_19 + 23 x_18_19
   + 23 x_18_19 + 23 x_18_19 + 23 x_18_19 + 23 x_18_19 + 23 x_18_19
   + 23 x_18_19 + 23 x_18_19 + 23 x_18_19 + 23 x_18_19 + 23 x_18_19
   + 23 x_18_19 + 23 x_18_19 + 23 x_18_19 + 23 x_18_19 + 23 x_18_19
   + 23 x_18_19 + 23 x_18_19 + 23 x_18_19 + 23 x_18_19 + 23 x_18_19
   + 23 x_18_19 + 23 x_18_19 + 23 x_18_19 + 23 x_18_19 + 23 x_18_19
   + 23 x_18_19 + 23 x_18_19 + 23 x_18_19 + 23 x_18_19 + 23 x_18_19
   + 23 x_18_19 + 23 x_18_19 + 23 x_18_19 + 23 x_18_19 + 23 x_18_19
   + 23 x_18_19 + 23 x_18_19 + 23 x_18_19 + 23 x_18_19 + 23 x_18_19
   + 23 x_18_19 + 23 x_18_19 + 23 x_18_19 + 23 x_18_19 + 23 x_18_19
   + 23 x_18_19 + 23 x_18_19 + 23 x_18_19 + 23 x_18_19 + 23 x_18_19
   + 23 x_18_19 + 23 x_18_19 + 23 x_18_19 + 23 x_18_19 + 23 x_18_19
   + 23 x_18_19 + 23 x_18_19 + 23 x_18_19 + 23 x_18_19 + 23 x_18_19
   + 23 x_18_19 + 23 x_18_19 + 23 x_18_19 + 23 x_18_19 + 23 x_18_19
   + 23 x_18_19 + 23 x_18_19 + 23 x_18_19 + 23 x_18_19 + 23 x_18_19
   + 23 x_18_19 + 23 x_18_19 + 23 x_18_19 + 23 x_18_19 + 23 x_18_19
   + 23 x_18_19 + 23 x_18_19 + 23 x_18_19 + 23 x_18_19 + 23 x_18_19
   + 23 x_18_19 + 23 x_18_19 + 23 x_18_19 + 23 x_18_19 + 23 x_18_19
   + 23 x_18_19 + 23 x_18_19 + 23 x_18_19 + 23 x_18_19 + 23 x_18_19
   + 23 x_18_19 + 23 x_18_19 + 23 x_18_19 + 23 x_18_19 + 23 x_18_19
   + 23 x_18_19 + 23 x_18_19 + 23 x_18_19 + 23 x_18_19 + 23 x_18_19
   + 23 x_18_19 + 23 x_18_19 + 23 x_18_19 + 23 x_18_19 + 23 x_18_19
   + 23 x_18_19 + 23 x_18_19 + 23 x_18_19 + 23 x_18_19 + 23 x_18_19
   + 23 x_18_19 + 23 x_18_19 + 23 x_18_19 + 23 x_18_19 + 23 x_18_19
   + 23 x_18_19 + 23 x_18_19 + 23 x_18_19 + 23 x_18_19 + 23 x_18_19
   + 23 x_18_19 + 23 x_18_19 + 23 x_18_19 + 23 x_18_19 + 23 x_18_19
   + 23 x_18_19 + 23 x_18_19 + 23 x_18_19 + 23 x_18_19 + 23 x_18_19
   + 23 x_18_19 + 23 x_18_19 + 23 x_18_19 + 23 x_18_19 + 23 x_18_19
   + 23 x_18_19 + 23 x_18_19 + 23 x_18_19 + 23 x_18_19 + 23 x_18_19
   + 23 x_18_19 + 23 x_18_19 + 23 x_18_19 + 23 x_18_19 + 23 x_18_19
   + 23 x_18_19 + 23 x_18_19 + 23 x_18_19 + 23 x_18_19 + 23 x_18_19
   + 23 x_18_19 + 23 x_18_19 + 23 x_18_19 + 23 x_18_19 + 23 x_18_19
   + 23 x_18_19 + 23 x_18_19 + 23 x_18_19 + 23 x_18_19 + 23 x_18_19
   + 23 x_18_19 + 23 x_18_19 + 23 x_18_19 + 23 x_18_19 + 23 x_18_19
   + 23 x_18_19 + 23 x_18_19 + 23 x_18_19 + 23 x_18_19 + 23 x_18_19
   + 23 x_18_19 + 23 x_18_19 + 23 x_18_19 + 23 x_18_19 + 23 x_18_19
   + 23 x_18_19 + 23 x_18_19 + 23 x_18_19 + 23 x_18_19 + 23 x_18_19
   + 23 x_18_19 + 23 x_18_19 + 23 x_18_19 + 23 x_18_19 + 23 x_18_19
   + 23 x_18_19 + 23 x_18_19 + 23 x_18_19 + 23 x_18_19 + 23 x_18_19
   + 23 x_18_19 + 23 x_18_19 + 23 x_18_19 + 23 x_18_19 + 23 x_18_19
   + 23 x_18_19 + 23 x_18_19 + 23 x_18_19 + 23 x_18_19 + 23 x_18_19
   + 23 x_18_19 + 23 x_18_19 + 23 x_18_19 + 23 x_18_19 + 23 x_18_19
   + 23 x_18_19 + 23 x_18_19 + 23 x_18_19 + 23 x_18_19 + 23 x_18_19
   + 23 x_18_19 + 23 x_18_19 + 23 x_18_19 + 23 x_18_19 + 23 x_18_19
   + 23 x_18_19 + 23 x_18_19 + 23 x_18_19 + 23 x_18_19 + 23 x_18_19
   + 23 x_18_19 + 23 x_18_19 + 23 x_18_19 + 23 x_18_19 + 23 x_18_19
   + 23 x_18_19 + 23 x_18_19 + 23 x_18_19 + 23 x_18_19 + 23 x_18_19
   + 23 x_18_19 + 23 x_18_19 + 23 x_18_19 + 23 x_18_19 + 23 x_18_19
   + 23 x_18_19 + 23 x_18_19 + 23 x_18_19 + 23 x_18_19 + 23 x_18_19
   + 23 x_18_19 + 23 x_18_19 + 23 x_18_19 + 23 x_18_19 + 23 x_18_19
   + 23 x_18_19 + 23 x_18_19 + 23 x_18_19 + 23 x_18_19 + 23 x_18_19
   + 23 x_18_19 + 23 x_18_19 + 23 x_18_19 + 23 x_18_19 + 23 x_18_19
   + 23 x_18_19 + 23 x_18_19 + 23 x_18_19 + 23 x_18_19 + 23 x_18_19
   + 23 x_18_19 + 23 x_18_19 + 23 x_18_19 + 23 x_18_19 + 23 x_18_19
   + 23 x_18_19 + 23 x_18_19 + 23 x_18_19 + 23 x_18_19 + 23 x_18_19
   + 23 x_18_19 + 23 x_18_19 + 23 x_18_19 + 23 x_18_19 + 23 x_18_19
   + 23 x_18_19 + 23 x_18_19 + 23 x_18_19 + 23 x_18_19 + 23 x_18_19
   + 23 x_18_19 + 23 x_18_19 + 23 x_18_19 + 23 x_18_19 + 23 x_18_19
   + 23 x_18_19 + 23 x_18_19 + 23 x_18_19 + 23 x_18_19 + 23 x_18_19
   + 23 x_18_19 + 23 x_18_19 + 23 x_18_19 + 23 x_18_19 + 23 x_18_19
   + 23 x_18_19 + 23 x_18_19 + 23 x_18_19 + 23 x_18_19 + 23 x_18_19
   + 23 x_18_19 + 23 x_18_19 + 23 x_18_19 + 23 x_18_19 + 23 x_18_19
   + 23 x_18_19 + 23 x_18_19 + 23 x_18_19 + 23 x_18_19 + 23 x_18_19
   + 23 x_18_19 + 23 x_18_19 + 23 x_18_19 + 23 x_18_19 + 23 x_18_19
   + 23 x_18_19 + 23 x_18_19 + 23 x_18_19 + 23 x_18_19 + 23 x_18_19
   + 23 x_18_19 + 23 x_18_19 + 23 x_18_19 + 23 x_18_19 + 23 x_18_19
   + 23 x_18_19 + 23 x_18_19 + 23 x_18_19 + 23 x_18_19 + 23 x_18_19
   + 23 x_18_19 + 23 x_18_19 + 23 x_18_19 + 23 x_18_19 + 23 x_18_19
   + 23 x_18_19 + 23 x_18_19 + 23 x_18_19 + 23 x_18_19 + 23 x_18_19
   + 23 x_18_19 + 23 x_18_19 + 23 x_18_19 + 23 x_18_19 + 23 x_18_19
   + 23 x_18_19 + 23 x_18_19 + 23 x_18_19 + 23 x_18_19 + 23 x_18_19
   + 23 x_18_19 + 23 x_18_19 + 23 x_18_19 + 23 x_18_19 + 23 x_18_19
   + 23 x_18_19 + 23 x_18_19 + 23 x_18_19 + 23 x_18_19 + 23 x_18_19
   + 23 x_18_19 + 23 x_18_19 + 23 x_18_19 + 23 x_18_19 + 23 x_18_19
   + 23 x_18_19 + 23 x_18_19 + 23 x_18_19 + 23 x_18_19 + 23 x_18_19
   + 23 x_18_19 + 23 x_18_19 + 23 x_18_19 + 23 x_18_19 + 23 x_18_19
   + 23 x_18_19 + 23 x_18_19 + 23 x_18_19 + 23 x_18_19 + 23 x_18_19
   + 23 x_18_19 + 23 x_18_19 + 23 x_18_19 + 23 x_18_19 + 23 x_18_19
   + 23 x_18_19 + 23 x_18_19 + 23 x_18_19 + 23 x_18_19 + 23 x_18_19
   + 23 x_18_19 + 23 x_18_19 + 23 x_18_19 + 23 x_18_19 + 23 x_18_19
   + 23 x_18_19 + 23 x_18_19 + 23 x_18_19 + 23 x_18_19 + 23 x_18_19
   + 23 x_18_19 + 23 x_18_19 + 23 x_18_19 + 23 x_18_19 + 23 x_18_19
   + 23 x_18_19 + 23 x_18_19 + 23 x_18_19 + 23 x_18_19 + 23 x_18_19
   + 23 x_18_19 + 23 x_18_19 + 23 x_18_19 + 23 x_18_19 + 23 x_18_19
   + 23 x_18_19 + 23 x_18_19 + 23 x_18_19 + 23 x_18_19 + 23 x_18_19
   + 23 x_18_19 + 23 x_18_19 + 23 x_18_19 + 23 x_18_19 + 23 x_18_19
   + 23 x_18_19 + 23 x_18_19 + 23 x_18_19 + 23 x_18_19 + 23 x_18_19
   + 23 x_18_19 + 23 x_18_19 + 23 x_18_19 + 23 x_18_19 + 23 x_18_19
   + 23 x_18_19 + 23 x_18_19 + 23 x_18_19 + 23 x_18_19 + 23 x_18_19
   + 23 x_18_19 + 23 x_18_19 + 23 x_18_19 + 23 x_18_19 + 23 x_18_19
   + 23 x_18_19 + 23 x_18_19 + 23 x_18_19 + 23 x_18_19 + 23 x_18_19
   + 23 x_18_19 + 23 x_18_19 + 23 x_18_19 + 23 x_18_19 + 23 x_18_19
   + 23 x_18_19 + 23 x_18_19 + 23 x_18_19 + 23 x_18_19 + 23 x_18_19
   + 23 x_18_19 + 23 x_18_19 + 23 x_18_19 + 23 x_18_19 + 23 x_18_19
   + 23 x_18_19 + 23 x_18_19 + 23 x_18_19 + 23 x_18_19 + 23 x_18_19
   + 23 x_18_19 + 23 x_18_19 + 23 x_18_19 + 23 x_18_19 + 23 x_18_19
   + 23 x_18_19 + 23 x_18_19 + 23 x_18_19 + 23 x_18_19 + 23 x_18_19
   + 23 x_18_19 + 23 x_18_19 + 23 x_18_19 + 23 x_18_19 + 23 x_18_19
   + 23 x_18_19 + 23 x_18_19 + 23 x_18_19 + 23 x_18_19 + 23 x_18_19
   + 23 x_18_19 + 23 x_18_19 + 23 x_18_19 + 23 x_18_19 + 23 x_18_19
   + 23 x_18_19 + 23 x_18_19 + 23 x_18_19 + 23 x_18_19 + 23 x_18_19
   + 23 x_18_19 + 23 x_18_19 + 23 x_18_19 + 23 x_18_19 + 23 x_18_19
   + 23 x_18_19 + 23 x_18_19 + 23 x_18_19 + 23 x_18_19 + 23 x_18_19
   + 23 x_18_19 + 23 x_18_19 + 23 x_18_19 + 23 x_18_19 + 23 x_18_19
   + 23 x_18_19 + 23 x_18_19 + 23 x_18_19 + 23 x_18_19 + 23 x_18_19
   + 23 x_18_19 + 23 x_18_19 + 23 x_18_19 + 23 x_18_19 + 23 x_18_19
   + 23 x_18_19 + 23 x_18_19 + 23 x_18_19 + 23 x_18_19 + 23 x_18_19
   + 23 x_18_19 + 23 x_18_19 + 23 x_18_19 + 23 x_18_19 + 23 x_18_19
   + 23 x_18_19 + 23 x_18_19 + 23 x_18_19 + 23 x_18_19 + 23 x_18_19
   + 23 x_18_19 + 23 x_18_19 + 23 x_18_19 + 23 x_18_19 + 23 x_18_19
   + 23 x_18_19 + 23 x_18_19 + 23 x_18_19 + 23 x_18_19 + 23 x_18_19
   + 23 x_18_19 + 23 x_18_19 + 23 x_18_19 + 23 x_18_19 + 23 x_18_19
   + 23 x_18_19 + 23 x_18_19 + 23 x_18_19 + 23 x_18_19 + 23 x_18_19
   + 23 x_18_19 + 23 x_18_19 + 23 x_18_19 + 23 x_18_19 + 23 x_18_19
   + 23 x_18_19 + 23 x_18_19 + 23 x_18_19 + 23 x_18_19 + 23 x_18_19
   + 23 x_18_19 + 23 x_18_19 + 23 x_18_19 + 23 x_18_19 + 23 x_18_19
   + 23 x_18_19 + 23 x_18_19 + 23 x_18_19 + 23 x_18_19 + 23 x_18_19
   + 23 x_18_19 + 23 x_18_19 + 23 x_18_19 + 23 x_18_19 + 23 x_18_19
   + 23 x_18_19 + 23 x_18_19 + 23 x_18_19 + 23 x_18_19 + 23 x_18_19
   + 23 x_18_19 + 23 x_18_19 + 23 x_18_19 + 23 x_18_19 + 23 x_18_19
   + 23 x_18_19 + 23 x_18_19 + 23 x_18_19 + 23 x_18_19 + 23 x_18_19
   + 23 x_18_19 + 23 x_18_19 + 23 x_18_19 + 23 x_18_19 + 23 x_18_19
   + 23 x_18_19 + 23 x_18_19 + 23 x_18_19 + 23 x_18_19 + 23 x_18_19
   + 23 x_18_19 + 23 x_18_19 + 23 x_18_19 + 23 x_18_19 + 23 x_18_19
   + 23 x_18_19 + 23 x_18_19 + 23 x_18_19 + 23 x_18_19 + 23 x_18_19
   + 23 x_18_19 + 23 x_18_19 + 23 x_18_19 + 23 x_18_19 + 23 x_18_19
   + 23 x_18_19 + 23 x_18_19 + 23 x_18_19 + 23 x_18_19 + 23 x_18_19
   + 23 x_18_19 + 23 x_18_19 + 23 x_18_19 + 23 x_18_19 + 23 x_18_19
   + 23 x_18_19 + 23 x_18_19 + 23 x_18_19 + 23 x_18_19 + 23 x_18_19
   + 23 x_18_19 + 23 x_18_19 + 23 x_18_19 + 23 x_18_19 + 23 x_18_19
   + 23 x_18_19 + 23 x_18_19 + 23 x_18_19 + 23 x_18_19 + 23 x_18_19
   + 23 x_18_19 + 23 x_18_19 + 23 x_18_19 + 23 x_18_19 + 23 x_18_19
   + 23 x_18_19 + 23 x_18_19 + 23 x_18_19 + 23 x_18_19 + 23 x_18_19
   + 23 x_18_19 + 23 x_18_19 + 23 x_18_19 + 23 x_18_19 + 23 x_18_19
   + 23 x_18_19 + 23 x_18_19 + 23 x_18_19 + 23 x_18_19 + 23 x_18_19
   + 23 x_18_19 + 23 x_18_19 + 23 x_18_19 + 23 x_18_19 + 23 x_18_19
   + 23 x_18_19 + 23 x_18_19 + 23 x_18_19 + 23 x_18_19 + 23 x_18_19
   + 23 x_18_19 + 23 x_18_19 + 23 x_18_19 + 23 x_18_19 + 23 x_18_19
   + 23 x_18_19 + 23 x_18_19 + 23 x_18_19 + 23 x_18_19 + 23 x_18_19
   + 23 x_18_19 + 23 x_18_19 + 23 x_18_19 + 23 x_18_19 + 23 x_18_19
   + 23 x_18_19 + 23 x_18_19 + 23 x_18_19 + 23 x_18_19 + 23 x_18_19
   + 23 x_18_19 + 23 x_18_19 + 23 x_18_19 + 23 x_18_19 + 23 x_18_19
   + 23 x_18_19 + 23 x_18_19 + 23 x_18_19 + 23 x_18_19 + 23 x_18_19
   + 23 x_18_19 + 23 x_18_19 + 23 x_18_19 + 23 x_18_19 + 23 x_18_19
   + 23 x_18_19 + 23 x_18_19 + 23 x_18_19 + 23 x_18_19 + 23 x_18_19
   + 23 x_18_19 + 23 x_18_19 + 23 x_18_19 + 23 x_18_19 + 23 x_18_19
   + 23 x_18_19 + 23 x_18_19 + 23 x_18_19 + 23 x_18_19 + 23 x_18_19
   + 23 x_18_19 + 23 x_18_19 + 23 x_18_19 + 23 x_18_19 + 23 x_18_19
   + 23 x_18_19 + 23 x_18_19 + 23 x_18_19 + 23 x_18_19 + 23 x_18_19
   + 23 x_18_19 + 23 x_18_19 + 23 x_18_19 + 23 x_18_19 + 23 x_18_19
   + 23 x_18_19 + 23 x_18_19 + 23 x_18_19 + 23 x_18_19 + 23 x_18_19
   + 23 x_18_19 + 23 x_18_19 + 23 x_18_19 + 23 x_18_19 + 23 x_18_19
   + 23 x_18_19 + 23 x_18_19 + 23 x_18_19 + 23 x_18_19 + 23 x_18_19
   + 23 x_18_19 + 23 x_18_19 + 23 x_18_19 + 23 x_18_19 + 23 x_18_19
   + 23 x_18_19 + 23 x_18_19 + 23 x_18_19 + 23 x_18_19 + 23 x_18_19
   + 23 x_18_19 + 23 x_18_19 + 23 x_18_19 + 23 x_18_19 + 23 x_18_19
   + 23 x_18_19 + 23 x_18_19 + 23 x_18_19 + 23 x_18_19 + 23 x_18_19
   + 23 x_18_19 + 23 x_18_19 + 23 x_18_19 + 23 x_18_19 + 23 x_18_19
   + 23 x_18_19 + 23 x_18_19 + 23 x_18_19 + 23 x_18_19 + 23 x_18_19
   + 23 x_18_19 + 23 x_18_19 + 23 x_18_19 + 23 x_18_19 + 23 x_18_19
   + 23 x_18_19 + 23 x_18_19 + 23 x_18_19 + 23 x_18_19 + 23 x_18_19
   + 23 x_18_19 + 23 x_18_19 + 23 x_18_19 + 23 x_18_19 + 23 x_18_19
   + 23 x_18_19 + 23 x_18_19 + 23 x_18_19 + 23 x_18_19 + 23 x_18_19
   + 23 x_18_19 + 23 x_18_19 + 23 x_18_19 + 23 x_18_19 + 23 x_18_19
   + 23 x_18_19 + 23 x_18_19 + 23 x_18_19 + 23 x_18_19 + 23 x_18_19
   + 23 x_18_19 + 23 x_18_19 + 23 x_18_19 + 23 x_18_19 + 23 x_18_19
   + 23 x_18_19 + 23 x_18_19 + 23 x_18_19 + 23 x_18_19 + 23 x_18_19
   + 23 x_18_19 + 23 x_18_19 + 23 x_18_19 + 23 x_18_19 + 23 x_18_19
   + 23 x_18_19 + 23 x_18_19 + 23 x_18_19 + 23 x_18_19 + 23 x_18_19
   + 23 x_18_19 + 23 x_18_19 + 23 x_18_19 + 23 x_18_19 + 23 x_18_19
   + 23 x_18_19 + 23 x_18_19 + 23 x_18_19 + 23 x_18_19 + 23 x_18_19
   + 23 x_18_19 + 23 x_18_19 + 23 x_18_19 + 23 x_18_19 + 23 x_18_19
   + 23 x_18_19 + 23 x_18_19 + 23 x_18_19 + 23 x_18_19 + 23 x_18_19
   + 23 x_18_19 + 23 x_18_19 + 23 x_18_19 + 23 x_18_19 + 23 x_18_19
   + 23 x_18_19 + 23 x_18_19 + 23 x_18_19 + 23 x_18_19 + 23 x_18_19
   + 23 x_18_19 + 23 x_18_19 + 23 x_18_19 + 23 x_18_19 + 23 x_18_19
   + 23 x_18_19 + 23 x_18_19 + 23 x_18_19 + 23 x_18_19 + 23 x_18_19
   + 23 x_18_19 + 23 x_18_19 + 23 x_18_19 + 23 x_18_19 + 23 x_18_19
   + 23 x_18_19 + 23 x_18_19 + 23 x_18_19 + 23 x_18_19 + 23 x_18_19
   + 23 x_18_19 + 23 x_18_19 + 23 x_18_19 + 23 x_18_19 + 23 x_18_19
   + 23 x_18_19 + 23 x_18_19 + 23 x_18_19 + 23 x_18_19 + 23 x_18_19
   + 23 x_18_19 + 23 x_18_19 + 23 x_18_19 + 368 Constant
Subject To
 c_0: y_2 = 1
 c_1_0: y_0 >= 1
 c_1_1: y_1 + y_15 >= 1
 c_1_2: y_2 + y_11 + y_16 + y_18 >= 1
 c_1_3: y_3 + y_7 >= 1
 c_1_4: y_4 >= 1
 c_1_5: y_5 + y_9 >= 1
 c_1_6: y_6 + y_17 >= 1
 c_1_7: y_3 + y_7 >= 1
 c_1_8: y_8 >= 1
 c_1_9: y_5 + y_9 + y_14 >= 1
 c_1_10: y_10 >= 1
 c_1_11: y_2 + y_11 + y_18 >= 1
 c_1_12: y_12 + y_13 >= 1
 c_1_13: y_12 + y_13 >= 1
 c_1_14: y_9 + y_14 + y_17 >= 1
 c_1_15: y_1 + y_15 >= 1
 c_1_16: y_2 + y_16 >= 1
 c_1_17: y_6 + y_14 + y_17 >= 1
 c_1_18: y_2 + y_11 + y_18 >= 1
 c_1_19: y_19 >= 1
 c_2_0: - 2 y_0 + x_0_1 + x_0_3 + x_0_4 + x_0_6 + x_0_7 + x_0_9 + x_0_10
   + x_0_12 + x_0_13 + x_0_14 + x_0_16 + x_0_17 + x_0_18 = 0
 c_2_1: - 2 y_1 + x_0_1 + x_1_3 + x_1_5 + x_1_6 + x_1_8 + x_1_9 + x_1_10
   + x_1_11 + x_1_12 + x_1_13 + x_1_14 + x_1_15 + x_1_16 + x_1_17 + x_1_18
   = 0
 c_2_2: - 2 y_2 + x_2_3 + x_2_4 + x_2_5 + x_2_6 + x_2_8 + x_2_9 + x_2_10
   + x_2_11 + x_2_12 + x_2_15 + x_2_19 = 0
 c_2_3: - 2 y_3 + x_0_3 + x_1_3 + x_2_3 + x_3_4 + x_3_5 + x_3_8 + x_3_9
   + x_3_10 + x_3_11 + x_3_14 + x_3_15 + x_3_17 + x_3_18 = 0
 c_2_4: - 2 y_4 + x_0_4 + x_2_4 + x_3_4 + x_4_5 + x_4_6 + x_4_7 + x_4_8
   + x_4_10 + x_4_11 + x_4_12 + x_4_13 + x_4_14 + x_4_15 + x_4_16 + x_4_17
   = 0
 c_2_5: - 2 y_5 + x_1_5 + x_2_5 + x_3_5 + x_4_5 + x_5_6 + x_5_7 + x_5_8
   + x_5_10 + x_5_11 + x_5_12 + x_5_13 + x_5_14 + x_5_15 + x_5_16 + x_5_17
   + x_5_18 + x_5_19 = 0
 c_2_6: - 2 y_6 + x_0_6 + x_1_6 + x_2_6 + x_4_6 + x_5_6 + x_6_8 + x_6_10
   + x_6_13 + x_6_14 + x_6_15 + x_6_16 + x_6_17 + x_6_19 = 0
 c_2_7: - 2 y_7 + x_0_7 + x_4_7 + x_5_7 + x_7_9 + x_7_10 + x_7_13 + x_7_15
   + x_7_16 + x_7_17 + x_7_18 = 0
 c_2_8: - 2 y_8 + x_1_8 + x_2_8 + x_3_8 + x_4_8 + x_5_8 + x_6_8 + x_8_10
   + x_8_11 + x_8_14 + x_8_15 + x_8_17 + x_8_19 = 0
 c_2_9: - 2 y_9 + x_0_9 + x_1_9 + x_2_9 + x_3_9 + x_7_9 + x_9_11 + x_9_12
   + x_9_13 + x_9_14 + x_9_16 + x_9_17 + x_9_19 = 0
 c_2_10: - 2 y_10 + x_0_10 + x_1_10 + x_2_10 + x_3_10 + x_4_10 + x_5_10
   + x_6_10 + x_7_10 + x_8_10 + x_10_12 + x_10_14 + x_10_15 + x_10_16
   + x_10_18 + x_10_19 = 0
 c_2_11: - 2 y_11 + x_1_11 + x_2_11 + x_3_11 + x_4_11 + x_5_11 + x_8_11
   + x_9_11 + x_11_12 + x_11_13 + x_11_16 + x_11_17 = 0
 c_2_12: - 2 y_12 + x_0_12 + x_1_12 + x_2_12 + x_4_12 + x_5_12 + x_9_12
   + x_10_12 + x_11_12 + x_12_13 + x_12_14 + x_12_16 + x_12_17 + x_12_18
   + x_12_19 = 0
 c_2_13: - 2 y_13 + x_0_13 + x_1_13 + x_4_13 + x_5_13 + x_6_13 + x_7_13
   + x_9_13 + x_11_13 + x_12_13 + x_13_14 + x_13_15 + x_13_17 + x_13_19
   = 0
 c_2_14: - 2 y_14 + x_0_14 + x_1_14 + x_3_14 + x_4_14 + x_5_14 + x_6_14
   + x_8_14 + x_9_14 + x_10_14 + x_12_14 + x_13_14 + x_14_17 + x_14_18
   + x_14_19 + 2 x_15_14 = 0
 c_2_15: - 2 y_15 + x_1_15 + x_2_15 + x_3_15 + x_4_15 + x_5_15 + x_6_15
   + x_7_15 + x_8_15 + x_10_15 + x_13_15 + 2 x_15_14 + x_15_16 + x_15_17
   + x_15_18 + x_15_19 = 0
 c_2_16: - 2 y_16 + x_0_16 + x_1_16 + x_4_16 + x_5_16 + x_6_16 + x_7_16
   + x_9_16 + x_10_16 + x_11_16 + x_12_16 + x_15_16 + x_16_17 + x_16_18
   = 0
 c_2_17: - 2 y_17 + x_0_17 + x_1_17 + x_3_17 + x_4_17 + x_5_17 + x_6_17
   + x_7_17 + x_8_17 + x_9_17 + x_11_17 + x_12_17 + x_13_17 + x_14_17
   + x_15_17 + x_16_17 = 0
 c_2_18: - 2 y_18 + x_0_18 + x_1_18 + x_3_18 + x_5_18 + x_7_18 + x_10_18
   + x_12_18 + x_14_18 + x_15_18 + x_16_18 + 1204 x_18_19 = 0
 c_2_19: - 2 y_19 + x_2_19 + x_5_19 + x_6_19 + x_8_19 + x_9_19 + x_10_19
   + x_12_19 + x_13_19 + x_14_19 + x_15_19 + 1204 x_18_19 = 0
Bounds
 Constant = 1
Binaries
 y_0 y_1 y_2 y_3 y_4 y_5 y_6 y_7 y_8 y_9 y_10 y_11 y_12 y_13 y_14 y_15 y_16
 y_17 y_18 y_19 x_0_1 x_0_3 x_0_4 x_0_6 x_0_7 x_0_9 x_0_10 x_0_12 x_0_13
 x_0_14 x_0_16 x_0_17 x_0_18 x_1_3 x_1_5 x_1_6 x_1_8 x_1_9 x_1_10 x_1_11
 x_1_12 x_1_13 x_1_14 x_1_15 x_1_16 x_1_17 x_1_18 x_2_3 x_2_4 x_2_5 x_2_6
 x_2_8 x_2_9 x_2_10 x_2_11 x_2_12 x_2_15 x_2_19 x_3_4 x_3_5 x_3_8 x_3_9
 x_3_10 x_3_11 x_3_14 x_3_15 x_3_17 x_3_18 x_4_5 x_4_6 x_4_7 x_4_8 x_4_10
 x_4_11 x_4_12 x_4_13 x_4_14 x_4_15 x_4_16 x_4_17 x_5_6 x_5_7 x_5_8 x_5_10
 x_5_11 x_5_12 x_5_13 x_5_14 x_5_15 x_5_16 x_5_17 x_5_18 x_5_19 x_6_8
 x_6_10 x_6_13 x_6_14 x_6_15 x_6_16 x_6_17 x_6_19 x_7_9 x_7_10 x_7_13
 x_7_15 x_7_16 x_7_17 x_7_18 x_8_10 x_8_11 x_8_14 x_8_15 x_8_17 x_8_19
 x_9_11 x_9_12 x_9_13 x_9_14 x_9_16 x_9_17 x_9_19 x_10_12 x_10_14 x_10_15
 x_10_16 x_10_18 x_10_19 x_11_12 x_11_13 x_11_16 x_11_17 x_12_13 x_12_14
 x_12_16 x_12_17 x_12_18 x_12_19 x_13_14 x_13_15 x_13_17 x_13_19 x_14_15
 x_14_17 x_14_18 x_14_19 x_15_14 x_15_16 x_15_17 x_15_18 x_15_19 x_16_17
 x_16_18 x_18_19 x_18_19 x_18_19 x_18_19 x_18_19 x_18_19 x_18_19 x_18_19
 x_18_19 x_18_19 x_18_19 x_18_19 x_18_19 x_18_19 x_18_19 x_18_19 x_18_19
 x_18_19 x_18_19 x_18_19 x_18_19 x_18_19 x_18_19 x_18_19 x_18_19 x_18_19
 x_18_19 x_18_19 x_18_19 x_18_19 x_18_19 x_18_19 x_18_19 x_18_19 x_18_19
 x_18_19 x_18_19 x_18_19 x_18_19 x_18_19 x_18_19 x_18_19 x_18_19 x_18_19
 x_18_19 x_18_19 x_18_19 x_18_19 x_18_19 x_18_19 x_18_19 x_18_19 x_18_19
 x_18_19 x_18_19 x_18_19 x_18_19 x_18_19 x_18_19 x_18_19 x_18_19 x_18_19
 x_18_19 x_18_19 x_18_19 x_18_19 x_18_19 x_18_19 x_18_19 x_18_19 x_18_19
 x_18_19 x_18_19 x_18_19 x_18_19 x_18_19 x_18_19 x_18_19 x_18_19 x_18_19
 x_18_19 x_18_19 x_18_19 x_18_19 x_18_19 x_18_19 x_18_19 x_18_19 x_18_19
 x_18_19 x_18_19 x_18_19 x_18_19 x_18_19 x_18_19 x_18_19 x_18_19 x_18_19
 x_18_19 x_18_19 x_18_19 x_18_19 x_18_19 x_18_19 x_18_19 x_18_19 x_18_19
 x_18_19 x_18_19 x_18_19 x_18_19 x_18_19 x_18_19 x_18_19 x_18_19 x_18_19
 x_18_19 x_18_19 x_18_19 x_18_19 x_18_19 x_18_19 x_18_19 x_18_19 x_18_19
 x_18_19 x_18_19 x_18_19 x_18_19 x_18_19 x_18_19 x_18_19 x_18_19 x_18_19
 x_18_19 x_18_19 x_18_19 x_18_19 x_18_19 x_18_19 x_18_19 x_18_19 x_18_19
 x_18_19 x_18_19 x_18_19 x_18_19 x_18_19 x_18_19 x_18_19 x_18_19 x_18_19
 x_18_19 x_18_19 x_18_19 x_18_19 x_18_19 x_18_19 x_18_19 x_18_19 x_18_19
 x_18_19 x_18_19 x_18_19 x_18_19 x_18_19 x_18_19 x_18_19 x_18_19 x_18_19
 x_18_19 x_18_19 x_18_19 x_18_19 x_18_19 x_18_19 x_18_19 x_18_19 x_18_19
 x_18_19 x_18_19 x_18_19 x_18_19 x_18_19 x_18_19 x_18_19 x_18_19 x_18_19
 x_18_19 x_18_19 x_18_19 x_18_19 x_18_19 x_18_19 x_18_19 x_18_19 x_18_19
 x_18_19 x_18_19 x_18_19 x_18_19 x_18_19 x_18_19 x_18_19 x_18_19 x_18_19
 x_18_19 x_18_19 x_18_19 x_18_19 x_18_19 x_18_19 x_18_19 x_18_19 x_18_19
 x_18_19 x_18_19 x_18_19 x_18_19 x_18_19 x_18_19 x_18_19 x_18_19 x_18_19
 x_18_19 x_18_19 x_18_19 x_18_19 x_18_19 x_18_19 x_18_19 x_18_19 x_18_19
 x_18_19 x_18_19 x_18_19 x_18_19 x_18_19 x_18_19 x_18_19 x_18_19 x_18_19
 x_18_19 x_18_19 x_18_19 x_18_19 x_18_19 x_18_19 x_18_19 x_18_19 x_18_19
 x_18_19 x_18_19 x_18_19 x_18_19 x_18_19 x_18_19 x_18_19 x_18_19 x_18_19
 x_18_19 x_18_19 x_18_19 x_18_19 x_18_19 x_18_19 x_18_19 x_18_19 x_18_19
 x_18_19 x_18_19 x_18_19 x_18_19 x_18_19 x_18_19 x_18_19 x_18_19 x_18_19
 x_18_19 x_18_19 x_18_19 x_18_19 x_18_19 x_18_19 x_18_19 x_18_19 x_18_19
 x_18_19 x_18_19 x_18_19 x_18_19 x_18_19 x_18_19 x_18_19 x_18_19 x_18_19
 x_18_19 x_18_19 x_18_19 x_18_19 x_18_19 x_18_19 x_18_19 x_18_19 x_18_19
 x_18_19 x_18_19 x_18_19 x_18_19 x_18_19 x_18_19 x_18_19 x_18_19 x_18_19
 x_18_19 x_18_19 x_18_19 x_18_19 x_18_19 x_18_19 x_18_19 x_18_19 x_18_19
 x_18_19 x_18_19 x_18_19 x_18_19 x_18_19 x_18_19 x_18_19 x_18_19 x_18_19
 x_18_19 x_18_19 x_18_19 x_18_19 x_18_19 x_18_19 x_18_19 x_18_19 x_18_19
 x_18_19 x_18_19 x_18_19 x_18_19 x_18_19 x_18_19 x_18_19 x_18_19 x_18_19
 x_18_19 x_18_19 x_18_19 x_18_19 x_18_19 x_18_19 x_18_19 x_18_19 x_18_19
 x_18_19 x_18_19 x_18_19 x_18_19 x_18_19 x_18_19 x_18_19 x_18_19 x_18_19
 x_18_19 x_18_19 x_18_19 x_18_19 x_18_19 x_18_19 x_18_19 x_18_19 x_18_19
 x_18_19 x_18_19 x_18_19 x_18_19 x_18_19 x_18_19 x_18_19 x_18_19 x_18_19
 x_18_19 x_18_19 x_18_19 x_18_19 x_18_19 x_18_19 x_18_19 x_18_19 x_18_19
 x_18_19 x_18_19 x_18_19 x_18_19 x_18_19 x_18_19 x_18_19 x_18_19 x_18_19
 x_18_19 x_18_19 x_18_19 x_18_19 x_18_19 x_18_19 x_18_19 x_18_19 x_18_19
 x_18_19 x_18_19 x_18_19 x_18_19 x_18_19 x_18_19 x_18_19 x_18_19 x_18_19
 x_18_19 x_18_19 x_18_19 x_18_19 x_18_19 x_18_19 x_18_19 x_18_19 x_18_19
 x_18_19 x_18_19 x_18_19 x_18_19 x_18_19 x_18_19 x_18_19 x_18_19 x_18_19
 x_18_19 x_18_19 x_18_19 x_18_19 x_18_19 x_18_19 x_18_19 x_18_19 x_18_19
 x_18_19 x_18_19 x_18_19 x_18_19 x_18_19 x_18_19 x_18_19 x_18_19 x_18_19
 x_18_19 x_18_19 x_18_19 x_18_19 x_18_19 x_18_19 x_18_19 x_18_19 x_18_19
 x_18_19 x_18_19 x_18_19 x_18_19 x_18_19 x_18_19 x_18_19 x_18_19 x_18_19
 x_18_19 x_18_19 x_18_19 x_18_19 x_18_19 x_18_19 x_18_19 x_18_19 x_18_19
 x_18_19 x_18_19 x_18_19 x_18_19 x_18_19 x_18_19 x_18_19 x_18_19 x_18_19
 x_18_19 x_18_19 x_18_19 x_18_19 x_18_19 x_18_19 x_18_19 x_18_19 x_18_19
 x_18_19 x_18_19 x_18_19 x_18_19 x_18_19 x_18_19 x_18_19 x_18_19 x_18_19
 x_18_19 x_18_19 x_18_19 x_18_19 x_18_19 x_18_19 x_18_19 x_18_19 x_18_19
 x_18_19 x_18_19 x_18_19 x_18_19 x_18_19 x_18_19 x_18_19 x_18_19 x_18_19
 x_18_19 x_18_19 x_18_19 x_18_19 x_18_19 x_18_19 x_18_19 x_18_19 x_18_19
 x_18_19 x_18_19 x_18_19 x_18_19 x_18_19 x_18_19 x_18_19 x_18_19 x_18_19
 x_18_19 x_18_19 x_18_19 x_18_19 x_18_19 x_18_19 x_18_19 x_18_19 x_18_19
 x_18_19 x_18_19 x_18_19 x_18_19 x_18_19 x_18_19 x_18_19 x_18_19 x_18_19
 x_18_19 x_18_19 x_18_19 x_18_19 x_18_19 x_18_19 x_18_19 x_18_19 x_18_19
 x_18_19 x_18_19 x_18_19 x_18_19 x_18_19 x_18_19 x_18_19 x_18_19 x_18_19
 x_18_19 x_18_19 x_18_19 x_18_19 x_18_19 x_18_19 x_18_19 x_18_19 x_18_19
 x_18_19 x_18_19 x_18_19 x_18_19 x_18_19 x_18_19 x_18_19 x_18_19 x_18_19
 x_18_19 x_18_19 x_18_19 x_18_19 x_18_19 x_18_19 x_18_19 x_18_19 x_18_19
 x_18_19 x_18_19 x_18_19 x_18_19 x_18_19 x_18_19 x_18_19 x_18_19 x_18_19
 x_18_19 x_18_19 x_18_19 x_18_19 x_18_19 x_18_19 x_18_19 x_18_19 x_18_19
 x_18_19 x_18_19 x_18_19 x_18_19 x_18_19 x_18_19 x_18_19 x_18_19 x_18_19
 x_18_19 x_18_19 x_18_19 x_18_19 x_18_19 x_18_19 x_18_19 x_18_19 x_18_19
 x_18_19 x_18_19 x_18_19 x_18_19 x_18_19 x_18_19 x_18_19 x_18_19 x_18_19
 x_18_19 x_18_19 x_18_19 x_18_19 x_18_19 x_18_19 x_18_19 x_18_19 x_18_19
 x_18_19 x_18_19 x_18_19 x_18_19 x_18_19 x_18_19 x_18_19 x_18_19 x_18_19
 x_18_19 x_18_19 x_18_19 x_18_19 x_18_19 x_18_19 x_18_19 x_18_19 x_18_19
 x_18_19 x_18_19 x_18_19 x_18_19 x_18_19 x_18_19 x_18_19 x_18_19 x_18_19
 x_18_19 x_18_19 x_18_19 x_18_19 x_18_19 x_18_19 x_18_19 x_18_19 x_18_19
 x_18_19 x_18_19 x_18_19 x_18_19 x_18_19 x_18_19 x_18_19 x_18_19 x_18_19
 x_18_19 x_18_19 x_18_19 x_18_19 x_18_19 x_18_19 x_18_19 x_18_19 x_18_19
 x_18_19 x_18_19 x_18_19 x_18_19 x_18_19 x_18_19 x_18_19 x_18_19 x_18_19
 x_18_19 x_18_19 x_18_19 x_18_19 x_18_19 x_18_19 x_18_19 x_18_19 x_18_19
 x_18_19 x_18_19 x_18_19 x_18_19 x_18_19 x_18_19 x_18_19 x_18_19 x_18_19
 x_18_19 x_18_19 x_18_19 x_18_19 x_18_19 x_18_19 x_18_19 x_18_19 x_18_19
 x_18_19 x_18_19 x_18_19 x_18_19 x_18_19 x_18_19 x_18_19 x_18_19 x_18_19
 x_18_19 x_18_19 x_18_19 x_18_19 x_18_19 x_18_19 x_18_19 x_18_19 x_18_19
 x_18_19 x_18_19 x_18_19 x_18_19 x_18_19 x_18_19 x_18_19 x_18_19 x_18_19
 x_18_19 x_18_19 x_18_19 x_18_19 x_18_19 x_18_19 x_18_19 x_18_19 x_18_19
 x_18_19 x_18_19 x_18_19 x_18_19 x_18_19 x_18_19 x_18_19 x_18_19 x_18_19
 x_18_19 x_18_19 x_18_19 x_18_19 x_18_19 x_18_19 x_18_19 x_18_19 x_18_19
 x_18_19 x_18_19 x_18_19 x_18_19 x_18_19 x_18_19 x_18_19 x_18_19 x_18_19
 x_18_19 x_18_19 x_18_19 x_18_19 x_18_19 x_18_19 x_18_19 x_18_19 x_18_19
 x_18_19 x_18_19 x_18_19 x_18_19 x_18_19 x_18_19 x_18_19 x_18_19 x_18_19
 x_18_19 x_18_19 x_18_19 x_18_19 x_18_19 x_18_19 x_18_19 x_18_19 x_18_19
 x_18_19 x_18_19 x_18_19 x_18_19 x_18_19 x_18_19 x_18_19 x_18_19 x_18_19
 x_18_19 x_18_19 x_18_19 x_18_19 x_18_19 x_18_19 x_18_19 x_18_19 x_18_19
 x_18_19 x_18_19 x_18_19 x_18_19 x_18_19 x_18_19 x_18_19 x_18_19 x_18_19
 x_18_19 x_18_19 x_18_19 x_18_19 x_18_19 x_18_19 x_18_19 x_18_19 x_18_19
 x_18_19 x_18_19 x_18_19 x_18_19 x_18_19 x_18_19 x_18_19 x_18_19 x_18_19
 x_18_19 x_18_19 x_18_19 x_18_19 x_18_19 x_18_19 x_18_19 x_18_19 x_18_19
 x_18_19 x_18_19 x_18_19 x_18_19 x_18_19 x_18_19 x_18_19 x_18_19 x_18_19
 x_18_19 x_18_19 x_18_19 x_18_19 x_18_19 x_18_19 x_18_19 x_18_19 x_18_19
 x_18_19 x_18_19 x_18_19 x_18_19 x_18_19 x_18_19 x_18_19 x_18_19 x_18_19
 x_18_19 x_18_19 x_18_19 x_18_19 x_18_19 x_18_19 x_18_19 x_18_19 x_18_19
 x_18_19 x_18_19 x_18_19 x_18_19 x_18_19 x_18_19 x_18_19 x_18_19 x_18_19
 x_18_19 x_18_19 x_18_19 x_18_19 x_18_19 x_18_19 x_18_19 x_18_19 x_18_19
 x_18_19 x_18_19 x_18_19 x_18_19 x_18_19 x_18_19 x_18_19 x_18_19 x_18_19
 x_18_19 x_18_19 x_18_19 x_18_19 x_18_19 x_18_19 x_18_19 x_18_19 x_18_19
 x_18_19 x_18_19 x_18_19 x_18_19 x_18_19 x_18_19 x_18_19 x_18_19 x_18_19
 x_18_19 x_18_19 x_18_19 x_18_19 x_18_19 x_18_19 x_18_19 x_18_19 x_18_19
 x_18_19 x_18_19 x_18_19 x_18_19 x_18_19 x_18_19 x_18_19 x_18_19 x_18_19
 x_18_19 x_18_19 x_18_19 x_18_19 x_18_19 x_18_19 x_18_19 x_18_19 x_18_19
 x_18_19 x_18_19 x_18_19 x_18_19 x_18_19 x_18_19 x_18_19 x_18_19 x_18_19
 x_18_19 x_18_19 x_18_19 x_18_19 x_18_19 x_18_19 x_18_19 x_18_19 x_18_19
 x_18_19 x_18_19 x_18_19 x_18_19 x_18_19 x_18_19 x_18_19 x_18_19 x_18_19
 x_18_19 x_18_19 x_18_19 x_18_19 x_18_19 x_18_19 x_18_19 x_18_19 x_18_19
 x_18_19 x_18_19 x_18_19 x_18_19 x_18_19 x_18_19 x_18_19 x_18_19 x_18_19
 x_18_19 x_18_19 x_18_19 x_18_19 x_18_19 x_18_19 x_18_19 x_18_19 x_18_19
 x_18_19 x_18_19 x_18_19 x_18_19 x_18_19 x_18_19 x_18_19 x_18_19 x_18_19
 x_18_19 x_18_19 x_18_19 x_18_19 x_18_19 x_18_19 x_18_19 x_18_19 x_18_19
 x_18_19 x_18_19 x_18_19 x_18_19 x_18_19 x_18_19 x_18_19 x_18_19 x_18_19
 x_18_19 x_18_19 x_18_19 x_18_19 x_18_19 x_18_19 x_18_19 x_18_19 x_18_19
 x_18_19 x_18_19 x_18_19 x_18_19 x_18_19 x_18_19 x_18_19 x_18_19 x_18_19
 x_18_19 x_18_19 x_18_19 x_18_19 x_18_19 x_18_19 x_18_19 x_18_19 x_18_19
 x_18_19 x_18_19 x_18_19 x_18_19 x_18_19 x_18_19 x_18_19 x_18_19 x_18_19
 x_18_19 x_18_19 x_18_19 x_18_19 x_18_19 x_18_19 x_18_19 x_18_19 x_18_19
 x_18_19 x_18_19 x_18_19 x_18_19 x_18_19 x_18_19 x_18_19 x_18_19 x_18_19
 x_18_19 x_18_19 x_18_19 x_18_19 x_18_19 x_18_19 x_18_19 x_18_19 x_18_19
 x_18_19 x_18_19 x_18_19 x_18_19 x_18_19 x_18_19 x_18_19 x_18_19 x_18_19
 x_18_19 x_18_19 x_18_19 x_18_19 x_18_19 x_18_19 x_18_19 x_18_19 x_18_19
 x_18_19 x_18_19 x_18_19 x_18_19 x_18_19 x_18_19 x_18_19 x_18_19 x_18_19
 x_18_19 x_18_19 x_18_19 x_18_19 x_18_19 x_18_19 x_18_19 x_18_19 x_18_19
 x_18_19 x_18_19 x_18_19 x_18_19 x_18_19 x_18_19 x_18_19 x_18_19 x_18_19
 x_18_19 x_18_19 x_18_19 x_18_19 x_18_19 x_18_19 x_18_19 x_18_19
End
